c FILE /home/rafael/Documents/HappySet/MIHS/inputs/happygen/output/graph_scale_free_k3_p0.1_v50_20241127_082406.txt
c SOURCE This is a scale-free graph formed for the happy graph colouring problem.
c DESCRIPTION It was generated using the problem generator of Rhyd Lewis
c
c GRAPH STATS
c Seed                             = -1082570416
c Number of Nodes                  = 50
c Number of colours k              = 3
c Number of pre-assignments        = 5
c Number of links per new node     = 5
c Density                          = 0.191837
c 
c The degrees of nodes 1 to 50, respectively, are as follows 
c [29, 22, 21, 19, 18, 17, 16, 16, 15, 15, 12, 11, 11, 11, 10, 10, 10, 9, 9, 9, 9, 8, 8, 7, 7, 7, 
c  7, 7, 7, 6, 6, 6, 6, 6, 6, 6, 6, 5, 5, 5, 5, 5, 5, 5, 5, 5, 5, 5, 5, 5] 
c  
p edge 50 235 3
e 1 2
e 1 3
e 1 4
e 1 5
e 1 6
e 1 7
e 1 10
e 1 11
e 1 12
e 1 15
e 1 16
e 1 18
e 1 19
e 1 20
e 1 21
e 1 22
e 1 23
e 1 26
e 1 28
e 1 30
e 1 33
e 1 36
e 1 40
e 1 41
e 1 42
e 1 43
e 1 44
e 1 47
e 1 50
e 2 4
e 2 5
e 2 6
e 2 7
e 2 9
e 2 10
e 2 11
e 2 12
e 2 13
e 2 14
e 2 16
e 2 17
e 2 20
e 2 21
e 2 39
e 2 41
e 2 43
e 2 44
e 2 45
e 2 48
e 2 50
e 3 4
e 3 5
e 3 6
e 3 7
e 3 8
e 3 9
e 3 13
e 3 15
e 3 17
e 3 19
e 3 20
e 3 22
e 3 25
e 3 26
e 3 33
e 3 35
e 3 37
e 3 40
e 3 42
e 3 50
e 4 5
e 4 6
e 4 7
e 4 8
e 4 12
e 4 13
e 4 14
e 4 19
e 4 20
e 4 23
e 4 32
e 4 34
e 4 35
e 4 36
e 4 38
e 4 41
e 5 6
e 5 7
e 5 8
e 5 13
e 5 16
e 5 18
e 5 19
e 5 24
e 5 25
e 5 29
e 5 37
e 5 38
e 5 42
e 5 46
e 6 7
e 6 8
e 6 9
e 6 12
e 6 14
e 6 15
e 6 18
e 6 22
e 6 24
e 6 35
e 6 40
e 6 46
e 7 12
e 7 13
e 7 14
e 7 16
e 7 19
e 7 23
e 7 26
e 7 31
e 7 32
e 7 38
e 8 9
e 8 12
e 8 15
e 8 17
e 8 18
e 8 21
e 8 24
e 8 28
e 8 29
e 8 31
e 8 39
e 8 46
e 9 10
e 9 11
e 9 13
e 9 15
e 9 16
e 9 17
e 9 30
e 9 36
e 9 41
e 9 43
e 9 50
e 10 14
e 10 16
e 10 25
e 10 27
e 10 28
e 10 31
e 10 34
e 10 36
e 10 38
e 10 39
e 10 44
e 10 49
e 11 15
e 11 17
e 11 24
e 11 26
e 11 27
e 11 33
e 11 37
e 11 43
e 11 50
e 12 22
e 12 36
e 12 38
e 12 40
e 12 41
e 13 22
e 13 26
e 13 28
e 13 29
e 13 47
e 14 18
e 14 20
e 14 21
e 14 27
e 14 30
e 14 33
e 15 17
e 15 18
e 15 27
e 15 46
e 16 25
e 16 30
e 16 31
e 16 39
e 17 23
e 17 33
e 17 39
e 17 47
e 18 34
e 18 44
e 18 48
e 19 24
e 19 25
e 19 42
e 19 47
e 20 28
e 20 34
e 20 45
e 20 49
e 21 26
e 21 29
e 21 31
e 21 34
e 21 48
e 22 32
e 22 35
e 22 45
e 23 24
e 23 27
e 23 32
e 23 40
e 24 45
e 25 30
e 25 43
e 26 48
e 27 32
e 27 45
e 28 37
e 28 44
e 29 32
e 29 46
e 29 49
e 30 37
e 31 49
e 33 42
e 34 35
e 35 47
e 36 49
e 37 48
n 16 3
n 19 1
n 21 2
n 32 3
n 41 1
